results_rootrelaxation/bin012_060_036.srr.sol
solution status: optimal solution found
objective value:                     2.80888888888889
_var699_                            0.219682539682539 	(obj:0)
_var703_                            0.176507936507936 	(obj:0)
_var726_                            0.144761904761905 	(obj:0)
_var729_                             0.10095238095238 	(obj:0)
_var734_                           0.0228571428571447 	(obj:1)
_var756_                           0.0533333333333332 	(obj:0)
_var768_                            0.136507936507936 	(obj:2)
_var777_                            0.418412698412697 	(obj:0)
_var778_                           0.0349206349206347 	(obj:1)
_var782_                            0.364444444444445 	(obj:0)
_var786_                          0.00825396825396912 	(obj:0)
_var797_                            0.391111111111113 	(obj:0)
_var798_                            0.427936507936508 	(obj:0)
_var801_                            0.673015873015874 	(obj:0)
_var803_                            0.695873015873016 	(obj:0)
_var805_                            0.200000000000001 	(obj:0)
_var807_                           0.0355555555555559 	(obj:0)
_var822_                             0.15936507936508 	(obj:0)
_var824_                            0.629206349206349 	(obj:0)
_var827_                            0.224761904761907 	(obj:1)
_var831_                           0.0482539682539688 	(obj:1)
_var833_                            0.118095238095239 	(obj:0)
_var837_                            0.432380952380952 	(obj:0)
_var847_                             0.15936507936508 	(obj:1)
_var848_                           0.0533333333333332 	(obj:1)
_var849_                           0.0120634920634919 	(obj:0)
_var850_                            0.116825396825397 	(obj:1)
_var852_                          0.00825396825396885 	(obj:0)
_var854_                            0.317460317460319 	(obj:0)
_var855_                            0.171428571428575 	(obj:1)
_var857_                            0.136507936507935 	(obj:1)
_var860_                           0.0095238095238096 	(obj:0)
_var863_                            0.136507936507936 	(obj:0)
_var865_                             0.21015873015873 	(obj:1)
_var872_                            0.187301587301587 	(obj:1)
_var873_                            0.586666666666667 	(obj:0)
_var875_                            0.304126984126984 	(obj:0)
_var882_                            0.299047619047618 	(obj:1)
_var884_                           0.0647619047619059 	(obj:0)
_var885_                           0.0653968253968254 	(obj:0)
_var889_                             0.19047619047619 	(obj:0)
_var890_                           0.0577777777777795 	(obj:0)
_var898_                            0.251428571428569 	(obj:1)
_var902_                          0.00825396825396857 	(obj:0)
_var905_                           0.0279365079365101 	(obj:1)
_var908_                           0.0749206349206346 	(obj:0)
_var911_                           0.0831746031746032 	(obj:0)
_var912_                            0.118095238095237 	(obj:0)
_var913_                            0.136507936507936 	(obj:1)
_var915_                            0.083174603174603 	(obj:1)
_var918_                             0.11365079365079 	(obj:0)
_var919_                            0.136507936507936 	(obj:0)
_var920_                            0.264126984126985 	(obj:0)
_var923_                           0.0539682539682543 	(obj:1)
_var926_                           0.0501587301587289 	(obj:0)
_var927_                            0.135873015873015 	(obj:1)
_var931_                            0.111111111111111 	(obj:0)
_var932_                           0.0774603174603173 	(obj:1)
_var933_                             0.26222222222222 	(obj:0)
_var934_                           0.0584126984126981 	(obj:0)
_var935_                           0.0330158730158741 	(obj:1)
_var938_                           0.0717460317460292 	(obj:1)
_var939_                           0.0450793650793646 	(obj:0)
