results_rootrelaxation/bin012_060_036.srr.log
SCIP version 8.0.3.5 [precision: 8 byte] [memory: block] [mode: optimized] [LP solver: Soplex 6.0.1.3] [GitHash: 438792519e]
Copyright (c) 2002-2023 Zuse Institute Berlin (ZIB)

External libraries: 
  Readline 8.1         GNU library for command line editing (gnu.org/s/readline)
  Soplex 6.0.1.3       Linear Programming Solver developed at Zuse Institute Berlin (soplex.zib.de) [GitHash: 713be0fe]
  CppAD 20180000.0     Algorithmic Differentiation of C++ algorithms developed by B. Bell (github.com/coin-or/CppAD)
  ZLIB 1.2.11          General purpose compression library by J. Gailly and M. Adler (zlib.net)
  bliss 0.77           Computing Graph Automorphism Groups by T. Junttila and P. Kaski (www.tcs.hut.fi/Software/bliss/)

user parameter file <scip.set> not found - using default parameters

srr/relaxation = TRUE

read problem <instances/bin012_060_036.srr>
============

Original problem: 
original problem has 0 variables (0 bin, 0 int, 0 impl, 0 cont) and 77 constraints

presolving:
presolving (1 rounds: 1 fast, 1 medium, 1 exhaustive):
 0 deleted vars, 0 deleted constraints, 0 added constraints, 0 tightened bounds, 0 added holes, 0 changed sides, 0 changed coefficients
 0 implications, 0 cliques
presolved problem has 0 variables (0 bin, 0 int, 0 impl, 0 cont) and 77 constraints
     77 constraints of type <linear>
Presolving Time: 0.00

 time | node  | left  |LP iter|LP it/n|mem/heur|mdpt |vars |cons |rows |cuts |sepa|confs|strbr|  dualbound   | primalbound  |  gap   | compl. 
  0.0s|     1 |     0 |     1 |     - |   710k |   0 |   1 |  77 |  77 |   0 |  0 |   0 |   0 |      --      |      --      |    Inf | unknown
r 0.1s|     1 |     0 |  1242 |     - |simplero|   0 | 679 |  77 |  77 |   0 |  0 |   0 |   0 |      --      | 1.906201e+01 |    Inf | unknown
r 0.1s|     1 |     0 |  1285 |     - |simplero|   0 | 690 |  77 |  77 |   0 |  0 |   0 |   0 |      --      | 1.813121e+01 |    Inf | unknown
r 0.1s|     1 |     0 |  1345 |     - |simplero|   0 | 701 |  77 |  77 |   0 |  0 |   0 |   0 |      --      | 1.617179e+01 |    Inf | unknown
r 0.1s|     1 |     0 |  1404 |     - |simplero|   0 | 712 |  77 |  77 |   0 |  0 |   0 |   0 |      --      | 1.387595e+01 |    Inf | unknown
r 0.1s|     1 |     0 |  1478 |     - |simplero|   0 | 723 |  77 |  77 |   0 |  0 |   0 |   0 |      --      | 1.174039e+01 |    Inf | unknown
r 0.1s|     1 |     0 |  1532 |     - |simplero|   0 | 734 |  77 |  77 |   0 |  0 |   0 |   0 |      --      | 1.098930e+01 |    Inf | unknown
r 0.1s|     1 |     0 |  1581 |     - |simplero|   0 | 745 |  77 |  77 |   0 |  0 |   0 |   0 |      --      | 9.898966e+00 |    Inf | unknown
r 0.1s|     1 |     0 |  1615 |     - |simplero|   0 | 756 |  77 |  77 |   0 |  0 |   0 |   0 |      --      | 9.502502e+00 |    Inf | unknown
r 0.1s|     1 |     0 |  1622 |     - |simplero|   0 | 756 |  77 |  77 |   0 |  0 |   0 |   0 |      --      | 9.472393e+00 |    Inf | unknown
r 0.1s|     1 |     0 |  1626 |     - |simplero|   0 | 756 |  77 |  77 |   0 |  0 |   0 |   0 |      --      | 9.467338e+00 |    Inf | unknown
r 0.1s|     1 |     0 |  1627 |     - |simplero|   0 | 756 |  77 |  77 |   0 |  0 |   0 |   0 |      --      | 9.467329e+00 |    Inf | unknown
r 0.1s|     1 |     0 |  1672 |     - |simplero|   0 | 767 |  77 |  77 |   0 |  0 |   0 |   0 |      --      | 8.413807e+00 |    Inf | unknown
r 0.1s|     1 |     0 |  1685 |     - |simplero|   0 | 767 |  77 |  77 |   0 |  0 |   0 |   0 |      --      | 8.401840e+00 |    Inf | unknown
r 0.1s|     1 |     0 |  1688 |     - |simplero|   0 | 767 |  77 |  77 |   0 |  0 |   0 |   0 |      --      | 8.401133e+00 |    Inf | unknown
 time | node  | left  |LP iter|LP it/n|mem/heur|mdpt |vars |cons |rows |cuts |sepa|confs|strbr|  dualbound   | primalbound  |  gap   | compl. 
r 0.1s|     1 |     0 |  1694 |     - |simplero|   0 | 767 |  77 |  77 |   0 |  0 |   0 |   0 |      --      | 8.395498e+00 |    Inf | unknown
r 0.1s|     1 |     0 |  1727 |     - |simplero|   0 | 778 |  77 |  77 |   0 |  0 |   0 |   0 |      --      | 7.845575e+00 |    Inf | unknown
r 0.1s|     1 |     0 |  1742 |     - |simplero|   0 | 778 |  77 |  77 |   0 |  0 |   0 |   0 |      --      | 7.733446e+00 |    Inf | unknown
r 0.1s|     1 |     0 |  1744 |     - |simplero|   0 | 778 |  77 |  77 |   0 |  0 |   0 |   0 |      --      | 7.732385e+00 |    Inf | unknown
r 0.1s|     1 |     0 |  1795 |     - |simplero|   0 | 789 |  77 |  77 |   0 |  0 |   0 |   0 |      --      | 6.965443e+00 |    Inf | unknown
r 0.1s|     1 |     0 |  1813 |     - |simplero|   0 | 789 |  77 |  77 |   0 |  0 |   0 |   0 |      --      | 6.850865e+00 |    Inf | unknown
r 0.1s|     1 |     0 |  1822 |     - |simplero|   0 | 789 |  77 |  77 |   0 |  0 |   0 |   0 |      --      | 6.834395e+00 |    Inf | unknown
r 0.1s|     1 |     0 |  1823 |     - |simplero|   0 | 789 |  77 |  77 |   0 |  0 |   0 |   0 |      --      | 6.834231e+00 |    Inf | unknown
r 0.1s|     1 |     0 |  1864 |     - |simplero|   0 | 800 |  77 |  77 |   0 |  0 |   0 |   0 |      --      | 6.274911e+00 |    Inf | unknown
r 0.1s|     1 |     0 |  1874 |     - |simplero|   0 | 800 |  77 |  77 |   0 |  0 |   0 |   0 |      --      | 6.256817e+00 |    Inf | unknown
r 0.1s|     1 |     0 |  1921 |     - |simplero|   0 | 811 |  77 |  77 |   0 |  0 |   0 |   0 |      --      | 5.389507e+00 |    Inf | unknown
r 0.1s|     1 |     0 |  1938 |     - |simplero|   0 | 811 |  77 |  77 |   0 |  0 |   0 |   0 |      --      | 5.280955e+00 |    Inf | unknown
r 0.1s|     1 |     0 |  1944 |     - |simplero|   0 | 811 |  77 |  77 |   0 |  0 |   0 |   0 |      --      | 5.270648e+00 |    Inf | unknown
r 0.1s|     1 |     0 |  1969 |     - |simplero|   0 | 822 |  77 |  77 |   0 |  0 |   0 |   0 |      --      | 4.947182e+00 |    Inf | unknown
r 0.1s|     1 |     0 |  1982 |     - |simplero|   0 | 822 |  77 |  77 |   0 |  0 |   0 |   0 |      --      | 4.927749e+00 |    Inf | unknown
 time | node  | left  |LP iter|LP it/n|mem/heur|mdpt |vars |cons |rows |cuts |sepa|confs|strbr|  dualbound   | primalbound  |  gap   | compl. 
r 0.1s|     1 |     0 |  2035 |     - |simplero|   0 | 833 |  77 |  77 |   0 |  0 |   0 |   0 |      --      | 4.405960e+00 |    Inf | unknown
r 0.1s|     1 |     0 |  2069 |     - |simplero|   0 | 844 |  77 |  77 |   0 |  0 |   0 |   0 |      --      | 3.868547e+00 |    Inf | unknown
  0.1s|     1 |     0 |  2097 |     - |  4024k |   0 | 855 |  77 |  77 |   0 |  0 |   0 |   0 |      --      | 3.868547e+00 |    Inf | unknown
r 0.1s|     1 |     0 |  2097 |     - |simplero|   0 | 855 |  77 |  77 |   0 |  0 |   0 |   0 |      --      | 3.495014e+00 |    Inf | unknown
r 0.1s|     1 |     0 |  2103 |     - |simplero|   0 | 855 |  77 |  77 |   0 |  0 |   0 |   0 |      --      | 3.488176e+00 |    Inf | unknown
r 0.1s|     1 |     0 |  2104 |     - |simplero|   0 | 855 |  77 |  77 |   0 |  0 |   0 |   0 |      --      | 3.487260e+00 |    Inf | unknown
r 0.1s|     1 |     0 |  2128 |     - |simplero|   0 | 866 |  77 |  77 |   0 |  0 |   0 |   0 |      --      | 3.327050e+00 |    Inf | unknown
r 0.1s|     1 |     0 |  2135 |     - |simplero|   0 | 866 |  77 |  77 |   0 |  0 |   0 |   0 |      --      | 3.325908e+00 |    Inf | unknown
r 0.1s|     1 |     0 |  2160 |     - |simplero|   0 | 877 |  77 |  77 |   0 |  0 |   0 |   0 |      --      | 3.203876e+00 |    Inf | unknown
r 0.1s|     1 |     0 |  2171 |     - |simplero|   0 | 877 |  77 |  77 |   0 |  0 |   0 |   0 |      --      | 3.180135e+00 |    Inf | unknown
r 0.1s|     1 |     0 |  2181 |     - |simplero|   0 | 877 |  77 |  77 |   0 |  0 |   0 |   0 |      --      | 3.168515e+00 |    Inf | unknown
r 0.1s|     1 |     0 |  2199 |     - |simplero|   0 | 888 |  77 |  77 |   0 |  0 |   0 |   0 |      --      | 3.063830e+00 |    Inf | unknown
r 0.1s|     1 |     0 |  2207 |     - |simplero|   0 | 888 |  77 |  77 |   0 |  0 |   0 |   0 |      --      | 3.055556e+00 |    Inf | unknown
r 0.1s|     1 |     0 |  2230 |     - |simplero|   0 | 898 |  77 |  77 |   0 |  0 |   0 |   0 |      --      | 3.020677e+00 |    Inf | unknown
r 0.1s|     1 |     0 |  2235 |     - |simplero|   0 | 898 |  77 |  77 |   0 |  0 |   0 |   0 |      --      | 3.018484e+00 |    Inf | unknown
 time | node  | left  |LP iter|LP it/n|mem/heur|mdpt |vars |cons |rows |cuts |sepa|confs|strbr|  dualbound   | primalbound  |  gap   | compl. 
r 0.1s|     1 |     0 |  2253 |     - |simplero|   0 | 908 |  77 |  77 |   0 |  0 |   0 |   0 |      --      | 2.987991e+00 |    Inf | unknown
r 0.1s|     1 |     0 |  2280 |     - |simplero|   0 | 918 |  77 |  77 |   0 |  0 |   0 |   0 |      --      | 2.911831e+00 |    Inf | unknown
r 0.1s|     1 |     0 |  2287 |     - |simplero|   0 | 918 |  77 |  77 |   0 |  0 |   0 |   0 |      --      | 2.906903e+00 |    Inf | unknown
r 0.1s|     1 |     0 |  2311 |     - |simplero|   0 | 924 |  77 |  77 |   0 |  0 |   0 |   0 |      --      | 2.873343e+00 |    Inf | unknown
r 0.1s|     1 |     0 |  2313 |     - |simplero|   0 | 924 |  77 |  77 |   0 |  0 |   0 |   0 |      --      | 2.872928e+00 |    Inf | unknown
r 0.1s|     1 |     0 |  2328 |     - |simplero|   0 | 929 |  77 |  77 |   0 |  0 |   0 |   0 |      --      | 2.826263e+00 |    Inf | unknown
r 0.1s|     1 |     0 |  2329 |     - |simplero|   0 | 929 |  77 |  77 |   0 |  0 |   0 |   0 |      --      | 2.825342e+00 |    Inf | unknown
r 0.1s|     1 |     0 |  2343 |     - |simplero|   0 | 934 |  77 |  77 |   0 |  0 |   0 |   0 |      --      | 2.816487e+00 |    Inf | unknown
r 0.1s|     1 |     0 |  2350 |     - |simplero|   0 | 934 |  77 |  77 |   0 |  0 |   0 |   0 |      --      | 2.814318e+00 |    Inf | unknown
r 0.1s|     1 |     0 |  2357 |     - |simplero|   0 | 938 |  77 |  77 |   0 |  0 |   0 |   0 |      --      | 2.810197e+00 |    Inf | unknown
r 0.1s|     1 |     0 |  2360 |     - |simplero|   0 | 939 |  77 |  77 |   0 |  0 |   0 |   0 |      --      | 2.809457e+00 |    Inf | unknown
r 0.1s|     1 |     0 |  2362 |     - |simplero|   0 | 940 |  77 |  77 |   0 |  0 |   0 |   0 |      --      | 2.808889e+00 |    Inf | unknown
  0.1s|     1 |     0 |  2362 |     - |  4608k |   0 | 940 |  77 |  77 |   0 |  0 |   0 |   0 | 2.808889e+00 | 2.808889e+00 |   0.00%| unknown
  0.1s|     1 |     0 |  2362 |     - |  4608k |   0 | 940 |  77 |  77 |   0 |  0 |   0 |   0 | 2.808889e+00 | 2.808889e+00 |   0.00%| unknown

SCIP Status        : problem is solved [optimal solution found]
Solving Time (sec) : 0.12
Solving Nodes      : 1
Primal Bound       : +2.80888888888889e+00 (55 solutions)
Dual Bound         : +2.80888888888889e+00
Gap                : 0.00 %

written transformed problem to file <results_rootrelaxation/bin012_060_036.srr.lp>
written transformed problem to file <results_rootrelaxation/bin012_060_036.srr.cip>


SCIP version 8.0.3.5 [precision: 8 byte] [memory: block] [mode: optimized] [LP solver: Soplex 6.0.1.3] [GitHash: 438792519e]
Copyright (c) 2002-2023 Zuse Institute Berlin (ZIB)

External libraries: 
  Readline 8.1         GNU library for command line editing (gnu.org/s/readline)
  Soplex 6.0.1.3       Linear Programming Solver developed at Zuse Institute Berlin (soplex.zib.de) [GitHash: 713be0fe]
  CppAD 20180000.0     Algorithmic Differentiation of C++ algorithms developed by B. Bell (github.com/coin-or/CppAD)
  ZLIB 1.2.11          General purpose compression library by J. Gailly and M. Adler (zlib.net)
  bliss 0.77           Computing Graph Automorphism Groups by T. Junttila and P. Kaski (www.tcs.hut.fi/Software/bliss/)

user parameter file <scip.set> not found - using default parameters

srr/relaxation = TRUE

read problem <instances/bin012_060_036.srr>
============

Original problem: 
original problem has 0 variables (0 bin, 0 int, 0 impl, 0 cont) and 77 constraints

presolving:
presolving (1 rounds: 1 fast, 1 medium, 1 exhaustive):
 0 deleted vars, 0 deleted constraints, 0 added constraints, 0 tightened bounds, 0 added holes, 0 changed sides, 0 changed coefficients
 0 implications, 0 cliques
presolved problem has 0 variables (0 bin, 0 int, 0 impl, 0 cont) and 77 constraints
     77 constraints of type <linear>
Presolving Time: 0.00

 time | node  | left  |LP iter|LP it/n|mem/heur|mdpt |vars |cons |rows |cuts |sepa|confs|strbr|  dualbound   | primalbound  |  gap   | compl. 
  0.0s|     1 |     0 |     1 |     - |   710k |   0 |   1 |  77 |  77 |   0 |  0 |   0 |   0 |      --      |      --      |    Inf | unknown
r 0.1s|     1 |     0 |  1242 |     - |simplero|   0 | 679 |  77 |  77 |   0 |  0 |   0 |   0 |      --      | 1.906201e+01 |    Inf | unknown
r 0.1s|     1 |     0 |  1285 |     - |simplero|   0 | 690 |  77 |  77 |   0 |  0 |   0 |   0 |      --      | 1.813121e+01 |    Inf | unknown
r 0.1s|     1 |     0 |  1345 |     - |simplero|   0 | 701 |  77 |  77 |   0 |  0 |   0 |   0 |      --      | 1.617179e+01 |    Inf | unknown
r 0.1s|     1 |     0 |  1404 |     - |simplero|   0 | 712 |  77 |  77 |   0 |  0 |   0 |   0 |      --      | 1.387595e+01 |    Inf | unknown
r 0.1s|     1 |     0 |  1478 |     - |simplero|   0 | 723 |  77 |  77 |   0 |  0 |   0 |   0 |      --      | 1.174039e+01 |    Inf | unknown
r 0.1s|     1 |     0 |  1532 |     - |simplero|   0 | 734 |  77 |  77 |   0 |  0 |   0 |   0 |      --      | 1.098930e+01 |    Inf | unknown
r 0.1s|     1 |     0 |  1581 |     - |simplero|   0 | 745 |  77 |  77 |   0 |  0 |   0 |   0 |      --      | 9.898966e+00 |    Inf | unknown
r 0.1s|     1 |     0 |  1615 |     - |simplero|   0 | 756 |  77 |  77 |   0 |  0 |   0 |   0 |      --      | 9.502502e+00 |    Inf | unknown
r 0.1s|     1 |     0 |  1622 |     - |simplero|   0 | 756 |  77 |  77 |   0 |  0 |   0 |   0 |      --      | 9.472393e+00 |    Inf | unknown
r 0.1s|     1 |     0 |  1626 |     - |simplero|   0 | 756 |  77 |  77 |   0 |  0 |   0 |   0 |      --      | 9.467338e+00 |    Inf | unknown
r 0.1s|     1 |     0 |  1627 |     - |simplero|   0 | 756 |  77 |  77 |   0 |  0 |   0 |   0 |      --      | 9.467329e+00 |    Inf | unknown
r 0.1s|     1 |     0 |  1672 |     - |simplero|   0 | 767 |  77 |  77 |   0 |  0 |   0 |   0 |      --      | 8.413807e+00 |    Inf | unknown
r 0.1s|     1 |     0 |  1685 |     - |simplero|   0 | 767 |  77 |  77 |   0 |  0 |   0 |   0 |      --      | 8.401840e+00 |    Inf | unknown
r 0.1s|     1 |     0 |  1688 |     - |simplero|   0 | 767 |  77 |  77 |   0 |  0 |   0 |   0 |      --      | 8.401133e+00 |    Inf | unknown
 time | node  | left  |LP iter|LP it/n|mem/heur|mdpt |vars |cons |rows |cuts |sepa|confs|strbr|  dualbound   | primalbound  |  gap   | compl. 
r 0.1s|     1 |     0 |  1694 |     - |simplero|   0 | 767 |  77 |  77 |   0 |  0 |   0 |   0 |      --      | 8.395498e+00 |    Inf | unknown
r 0.1s|     1 |     0 |  1727 |     - |simplero|   0 | 778 |  77 |  77 |   0 |  0 |   0 |   0 |      --      | 7.845575e+00 |    Inf | unknown
r 0.1s|     1 |     0 |  1742 |     - |simplero|   0 | 778 |  77 |  77 |   0 |  0 |   0 |   0 |      --      | 7.733446e+00 |    Inf | unknown
r 0.1s|     1 |     0 |  1744 |     - |simplero|   0 | 778 |  77 |  77 |   0 |  0 |   0 |   0 |      --      | 7.732385e+00 |    Inf | unknown
r 0.1s|     1 |     0 |  1795 |     - |simplero|   0 | 789 |  77 |  77 |   0 |  0 |   0 |   0 |      --      | 6.965443e+00 |    Inf | unknown
r 0.1s|     1 |     0 |  1813 |     - |simplero|   0 | 789 |  77 |  77 |   0 |  0 |   0 |   0 |      --      | 6.850865e+00 |    Inf | unknown
r 0.1s|     1 |     0 |  1822 |     - |simplero|   0 | 789 |  77 |  77 |   0 |  0 |   0 |   0 |      --      | 6.834395e+00 |    Inf | unknown
r 0.1s|     1 |     0 |  1823 |     - |simplero|   0 | 789 |  77 |  77 |   0 |  0 |   0 |   0 |      --      | 6.834231e+00 |    Inf | unknown
r 0.1s|     1 |     0 |  1864 |     - |simplero|   0 | 800 |  77 |  77 |   0 |  0 |   0 |   0 |      --      | 6.274911e+00 |    Inf | unknown
r 0.1s|     1 |     0 |  1874 |     - |simplero|   0 | 800 |  77 |  77 |   0 |  0 |   0 |   0 |      --      | 6.256817e+00 |    Inf | unknown
r 0.1s|     1 |     0 |  1921 |     - |simplero|   0 | 811 |  77 |  77 |   0 |  0 |   0 |   0 |      --      | 5.389507e+00 |    Inf | unknown
r 0.1s|     1 |     0 |  1938 |     - |simplero|   0 | 811 |  77 |  77 |   0 |  0 |   0 |   0 |      --      | 5.280955e+00 |    Inf | unknown
r 0.1s|     1 |     0 |  1944 |     - |simplero|   0 | 811 |  77 |  77 |   0 |  0 |   0 |   0 |      --      | 5.270648e+00 |    Inf | unknown
r 0.1s|     1 |     0 |  1969 |     - |simplero|   0 | 822 |  77 |  77 |   0 |  0 |   0 |   0 |      --      | 4.947182e+00 |    Inf | unknown
r 0.1s|     1 |     0 |  1982 |     - |simplero|   0 | 822 |  77 |  77 |   0 |  0 |   0 |   0 |      --      | 4.927749e+00 |    Inf | unknown
 time | node  | left  |LP iter|LP it/n|mem/heur|mdpt |vars |cons |rows |cuts |sepa|confs|strbr|  dualbound   | primalbound  |  gap   | compl. 
r 0.1s|     1 |     0 |  2035 |     - |simplero|   0 | 833 |  77 |  77 |   0 |  0 |   0 |   0 |      --      | 4.405960e+00 |    Inf | unknown
r 0.1s|     1 |     0 |  2069 |     - |simplero|   0 | 844 |  77 |  77 |   0 |  0 |   0 |   0 |      --      | 3.868547e+00 |    Inf | unknown
  0.1s|     1 |     0 |  2097 |     - |  4024k |   0 | 855 |  77 |  77 |   0 |  0 |   0 |   0 |      --      | 3.868547e+00 |    Inf | unknown
r 0.1s|     1 |     0 |  2097 |     - |simplero|   0 | 855 |  77 |  77 |   0 |  0 |   0 |   0 |      --      | 3.495014e+00 |    Inf | unknown
r 0.1s|     1 |     0 |  2103 |     - |simplero|   0 | 855 |  77 |  77 |   0 |  0 |   0 |   0 |      --      | 3.488176e+00 |    Inf | unknown
r 0.1s|     1 |     0 |  2104 |     - |simplero|   0 | 855 |  77 |  77 |   0 |  0 |   0 |   0 |      --      | 3.487260e+00 |    Inf | unknown
r 0.1s|     1 |     0 |  2128 |     - |simplero|   0 | 866 |  77 |  77 |   0 |  0 |   0 |   0 |      --      | 3.327050e+00 |    Inf | unknown
r 0.1s|     1 |     0 |  2135 |     - |simplero|   0 | 866 |  77 |  77 |   0 |  0 |   0 |   0 |      --      | 3.325908e+00 |    Inf | unknown
r 0.1s|     1 |     0 |  2160 |     - |simplero|   0 | 877 |  77 |  77 |   0 |  0 |   0 |   0 |      --      | 3.203876e+00 |    Inf | unknown
r 0.1s|     1 |     0 |  2171 |     - |simplero|   0 | 877 |  77 |  77 |   0 |  0 |   0 |   0 |      --      | 3.180135e+00 |    Inf | unknown
r 0.1s|     1 |     0 |  2181 |     - |simplero|   0 | 877 |  77 |  77 |   0 |  0 |   0 |   0 |      --      | 3.168515e+00 |    Inf | unknown
r 0.1s|     1 |     0 |  2199 |     - |simplero|   0 | 888 |  77 |  77 |   0 |  0 |   0 |   0 |      --      | 3.063830e+00 |    Inf | unknown
r 0.1s|     1 |     0 |  2207 |     - |simplero|   0 | 888 |  77 |  77 |   0 |  0 |   0 |   0 |      --      | 3.055556e+00 |    Inf | unknown
r 0.1s|     1 |     0 |  2230 |     - |simplero|   0 | 898 |  77 |  77 |   0 |  0 |   0 |   0 |      --      | 3.020677e+00 |    Inf | unknown
r 0.1s|     1 |     0 |  2235 |     - |simplero|   0 | 898 |  77 |  77 |   0 |  0 |   0 |   0 |      --      | 3.018484e+00 |    Inf | unknown
 time | node  | left  |LP iter|LP it/n|mem/heur|mdpt |vars |cons |rows |cuts |sepa|confs|strbr|  dualbound   | primalbound  |  gap   | compl. 
r 0.1s|     1 |     0 |  2253 |     - |simplero|   0 | 908 |  77 |  77 |   0 |  0 |   0 |   0 |      --      | 2.987991e+00 |    Inf | unknown
r 0.1s|     1 |     0 |  2280 |     - |simplero|   0 | 918 |  77 |  77 |   0 |  0 |   0 |   0 |      --      | 2.911831e+00 |    Inf | unknown
r 0.1s|     1 |     0 |  2287 |     - |simplero|   0 | 918 |  77 |  77 |   0 |  0 |   0 |   0 |      --      | 2.906903e+00 |    Inf | unknown
r 0.1s|     1 |     0 |  2311 |     - |simplero|   0 | 924 |  77 |  77 |   0 |  0 |   0 |   0 |      --      | 2.873343e+00 |    Inf | unknown
r 0.1s|     1 |     0 |  2313 |     - |simplero|   0 | 924 |  77 |  77 |   0 |  0 |   0 |   0 |      --      | 2.872928e+00 |    Inf | unknown
r 0.1s|     1 |     0 |  2328 |     - |simplero|   0 | 929 |  77 |  77 |   0 |  0 |   0 |   0 |      --      | 2.826263e+00 |    Inf | unknown
r 0.1s|     1 |     0 |  2329 |     - |simplero|   0 | 929 |  77 |  77 |   0 |  0 |   0 |   0 |      --      | 2.825342e+00 |    Inf | unknown
r 0.1s|     1 |     0 |  2343 |     - |simplero|   0 | 934 |  77 |  77 |   0 |  0 |   0 |   0 |      --      | 2.816487e+00 |    Inf | unknown
r 0.1s|     1 |     0 |  2350 |     - |simplero|   0 | 934 |  77 |  77 |   0 |  0 |   0 |   0 |      --      | 2.814318e+00 |    Inf | unknown
r 0.1s|     1 |     0 |  2357 |     - |simplero|   0 | 938 |  77 |  77 |   0 |  0 |   0 |   0 |      --      | 2.810197e+00 |    Inf | unknown
r 0.1s|     1 |     0 |  2360 |     - |simplero|   0 | 939 |  77 |  77 |   0 |  0 |   0 |   0 |      --      | 2.809457e+00 |    Inf | unknown
r 0.1s|     1 |     0 |  2362 |     - |simplero|   0 | 940 |  77 |  77 |   0 |  0 |   0 |   0 |      --      | 2.808889e+00 |    Inf | unknown
  0.1s|     1 |     0 |  2362 |     - |  4608k |   0 | 940 |  77 |  77 |   0 |  0 |   0 |   0 | 2.808889e+00 | 2.808889e+00 |   0.00%| unknown
  0.1s|     1 |     0 |  2362 |     - |  4608k |   0 | 940 |  77 |  77 |   0 |  0 |   0 |   0 | 2.808889e+00 | 2.808889e+00 |   0.00%| unknown

SCIP Status        : problem is solved [optimal solution found]
Solving Time (sec) : 0.12
Solving Nodes      : 1
Primal Bound       : +2.80888888888889e+00 (55 solutions)
Dual Bound         : +2.80888888888889e+00
Gap                : 0.00 %

written transformed problem to file <results_rootrelaxation/bin012_060_036.srr.lp>
written transformed problem to file <results_rootrelaxation/bin012_060_036.srr.cip>

written solution information to file <results_rootrelaxation/bin012_060_036.srr.sol>



